benchmark/results/graph__15-1000-0.10-02_7/error_log/graph__15-1000-0.10-02_7_Quinton_Benders_sub_ERRORLOG.lp
\ This file has been generated by DOcplex
\ ENCODING=ISO-8859-1
\Problem name: Quinton Benders_dual_sub

Minimize
 obj: 0.001466275660 pi_nr_a0 + 0.000980392157 pi_nr_a1
      + 0.001579778831 pi_nr_a2 + 0.001047120419 pi_nr_a3
      + 0.001321003963 pi_nr_a4 + 0.002898550725 pi_nr_a5
      + 0.000843170320 pi_nr_a6 + 0.001180637544 pi_nr_a7
      + 0.001101321586 pi_nr_a8 + 0.000992063492 pi_nr_a9
      + 0.001076426265 pi_nr_a10 + 0.000770416025 pi_nr_a11
      + 0.001144164760 pi_nr_a12 + 0.001001001001 pi_nr_a13
      + 0.001449275362 pi_nr_a14 + pi_p_a2_a0 + pi_p_a8_a0 + pi_p_a13_a4
      + pi_p_a14_a14 + pi_p_a13_a5 + 2596 pi_d_a0_a1_proc_0
      + 2596 pi_d_a0_a1_proc_1 + pi_d_a1_a0_proc_0 + pi_d_a1_a0_proc_1
      + pi_d_a2_a0_proc_0 + 2596 pi_d_a0_a3_proc_1 + pi_d_a3_a0_proc_1
      + 2596 pi_d_a0_a4_proc_0 + 2596 pi_d_a0_a4_proc_1 + pi_d_a4_a0_proc_0
      + pi_d_a4_a0_proc_1 + 2596 pi_d_a0_a5_proc_0 + 2596 pi_d_a0_a5_proc_1
      + pi_d_a5_a0_proc_0 + pi_d_a5_a0_proc_1 + 2596 pi_d_a0_a6_proc_1
      + pi_d_a6_a0_proc_1 - pi_d_a0_a7_proc_0 + 2595 pi_d_a0_a7_proc_1
      + 2 pi_d_a7_a0_proc_0 + 2598 pi_d_a7_a0_proc_1 + 2596 pi_d_a0_a8_proc_1
      + pi_d_a8_a0_proc_0 + 2597 pi_d_a8_a0_proc_1 + 2596 pi_d_a0_a9_proc_0
      + 2596 pi_d_a0_a9_proc_1 + pi_d_a9_a0_proc_0 + pi_d_a9_a0_proc_1
      + 2596 pi_d_a0_a10_proc_0 + 2596 pi_d_a0_a10_proc_1 + pi_d_a10_a0_proc_0
      + pi_d_a10_a0_proc_1 - 1919 pi_d_a0_a11_proc_0 + 677 pi_d_a0_a11_proc_1
      + 1920 pi_d_a11_a0_proc_0 + 4516 pi_d_a11_a0_proc_1 + pi_d_a12_a0_proc_0
      + 2597 pi_d_a13_a0_proc_0 + 2597 pi_d_a13_a0_proc_1
      + 2596 pi_d_a0_a14_proc_0 + 2596 pi_d_a0_a14_proc_1 + pi_d_a14_a0_proc_0
      + pi_d_a14_a0_proc_1 + 2596 pi_d_a1_a2_proc_0 + pi_d_a2_a1_proc_0
      + pi_d_a3_a1_proc_1 + 2597 pi_d_a1_a4_proc_0 + pi_d_a1_a4_proc_1
      + 2596 pi_d_a4_a1_proc_0 + 2597 pi_d_a1_a5_proc_0 + pi_d_a1_a5_proc_1
      + 2596 pi_d_a5_a1_proc_0 + pi_d_a1_a6_proc_1 + 2334 pi_d_a1_a7_proc_0
      + 2334 pi_d_a1_a7_proc_1 + 263 pi_d_a7_a1_proc_0 + 263 pi_d_a7_a1_proc_1
      + 2596 pi_d_a1_a8_proc_0 + 2596 pi_d_a1_a8_proc_1 + pi_d_a8_a1_proc_0
      + pi_d_a8_a1_proc_1 + 2597 pi_d_a1_a9_proc_0 + pi_d_a1_a9_proc_1
      + 2596 pi_d_a9_a1_proc_0 + 2597 pi_d_a1_a10_proc_0 + pi_d_a1_a10_proc_1
      + 2596 pi_d_a10_a1_proc_0 + 677 pi_d_a1_a11_proc_0
      + 677 pi_d_a1_a11_proc_1 + 1920 pi_d_a11_a1_proc_0
      + 1920 pi_d_a11_a1_proc_1 + 2596 pi_d_a1_a12_proc_0 + pi_d_a12_a1_proc_0
      + 2596 pi_d_a1_a13_proc_0 + 2597 pi_d_a13_a1_proc_0 + pi_d_a13_a1_proc_1
      + 2596 pi_d_a1_a14_proc_0 + 2597 pi_d_a14_a1_proc_0 + pi_d_a14_a1_proc_1
      + 2597 pi_d_a2_a4_proc_0 + 2597 pi_d_a2_a5_proc_0 + pi_d_a7_a2_proc_0
      + pi_d_a2_a8_proc_0 + 2597 pi_d_a2_a9_proc_0 + 2597 pi_d_a2_a10_proc_0
      - 1918 pi_d_a2_a11_proc_0 + 1919 pi_d_a11_a2_proc_0 + pi_d_a2_a12_proc_0
      + 2597 pi_d_a2_a13_proc_0 + 2597 pi_d_a2_a14_proc_0 + pi_d_a3_a4_proc_1
      + pi_d_a3_a5_proc_1 + pi_d_a3_a6_proc_1 + 2596 pi_d_a3_a7_proc_1
      + pi_d_a7_a3_proc_1 + 2597 pi_d_a3_a8_proc_1 + pi_d_a3_a9_proc_1
      + pi_d_a3_a10_proc_1 + 677 pi_d_a3_a11_proc_1 + 1920 pi_d_a11_a3_proc_1
      + pi_d_a3_a13_proc_1 + pi_d_a3_a14_proc_1 + 2596 pi_d_a4_a5_proc_0
      + 2597 pi_d_a5_a4_proc_0 + pi_d_a5_a4_proc_1 + pi_d_a4_a6_proc_1
      + 2596 pi_d_a4_a7_proc_0 + 2596 pi_d_a4_a7_proc_1 + pi_d_a7_a4_proc_0
      + pi_d_a7_a4_proc_1 + 2596 pi_d_a4_a8_proc_0 + 2596 pi_d_a4_a8_proc_1
      + pi_d_a8_a4_proc_0 + pi_d_a8_a4_proc_1 + 2596 pi_d_a4_a9_proc_0
      + 2597 pi_d_a9_a4_proc_0 + pi_d_a9_a4_proc_1 + 2597 pi_d_a4_a10_proc_0
      + pi_d_a4_a10_proc_1 + 2596 pi_d_a10_a4_proc_0 + 677 pi_d_a4_a11_proc_0
      + 677 pi_d_a4_a11_proc_1 + 1920 pi_d_a11_a4_proc_0
      + 1920 pi_d_a11_a4_proc_1 + 2596 pi_d_a4_a12_proc_0 + pi_d_a12_a4_proc_0
      + 2596 pi_d_a4_a13_proc_0 + 2597 pi_d_a13_a4_proc_0 + pi_d_a13_a4_proc_1
      + 2596 pi_d_a4_a14_proc_0 + 2597 pi_d_a14_a4_proc_0 + pi_d_a14_a4_proc_1
      + pi_d_a5_a6_proc_1 + 2596 pi_d_a5_a7_proc_0 + 2596 pi_d_a5_a7_proc_1
      + pi_d_a7_a5_proc_0 + pi_d_a7_a5_proc_1 + 2596 pi_d_a5_a8_proc_0
      + 2596 pi_d_a5_a8_proc_1 + pi_d_a8_a5_proc_0 + pi_d_a8_a5_proc_1
      + 2597 pi_d_a5_a9_proc_0 + pi_d_a5_a9_proc_1 + 2596 pi_d_a9_a5_proc_0
      + 2597 pi_d_a5_a10_proc_0 + pi_d_a5_a10_proc_1 + 2596 pi_d_a10_a5_proc_0
      + 677 pi_d_a5_a11_proc_0 + 677 pi_d_a5_a11_proc_1
      + 1920 pi_d_a11_a5_proc_0 + 1920 pi_d_a11_a5_proc_1
      + 2596 pi_d_a5_a12_proc_0 + pi_d_a12_a5_proc_0 + 2596 pi_d_a5_a13_proc_0
      + 2597 pi_d_a13_a5_proc_0 + pi_d_a13_a5_proc_1 + 2596 pi_d_a5_a14_proc_0
      + 2597 pi_d_a14_a5_proc_0 + pi_d_a14_a5_proc_1 + 2596 pi_d_a6_a7_proc_1
      + pi_d_a7_a6_proc_1 + 2596 pi_d_a6_a8_proc_1 + pi_d_a8_a6_proc_1
      + pi_d_a9_a6_proc_1 + pi_d_a6_a10_proc_1 + 677 pi_d_a6_a11_proc_1
      + 1920 pi_d_a11_a6_proc_1 + pi_d_a13_a6_proc_1 + pi_d_a14_a6_proc_1
      + pi_d_a7_a8_proc_0 + 2597 pi_d_a7_a8_proc_1 + 2596 pi_d_a8_a7_proc_1
      + 2454 pi_d_a7_a9_proc_0 + 2454 pi_d_a7_a9_proc_1 + 143 pi_d_a9_a7_proc_0
      + 143 pi_d_a9_a7_proc_1 + 2598 pi_d_a7_a10_proc_0
      + 2598 pi_d_a7_a10_proc_1 - pi_d_a10_a7_proc_0 - pi_d_a10_a7_proc_1
      - 1918 pi_d_a7_a11_proc_0 + 678 pi_d_a7_a11_proc_1
      + 1919 pi_d_a11_a7_proc_0 + 4515 pi_d_a11_a7_proc_1 + pi_d_a7_a12_proc_0
      + 2597 pi_d_a7_a13_proc_0 + 2597 pi_d_a7_a13_proc_1 + pi_d_a7_a14_proc_0
      + pi_d_a7_a14_proc_1 + 2596 pi_d_a14_a7_proc_0 + 2596 pi_d_a14_a7_proc_1
      + 1423 pi_d_a8_a9_proc_0 + 1423 pi_d_a8_a9_proc_1 + 1174 pi_d_a9_a8_proc_0
      + 1174 pi_d_a9_a8_proc_1 + 2597 pi_d_a8_a10_proc_0
      + 2597 pi_d_a8_a10_proc_1 - 1919 pi_d_a8_a11_proc_0
      + 677 pi_d_a8_a11_proc_1 + 1920 pi_d_a11_a8_proc_0
      + 4516 pi_d_a11_a8_proc_1 + pi_d_a8_a12_proc_0 + 2597 pi_d_a8_a13_proc_0
      + 2597 pi_d_a8_a13_proc_1 + 2597 pi_d_a14_a8_proc_0
      + 2597 pi_d_a14_a8_proc_1 + 2597 pi_d_a9_a10_proc_0 + pi_d_a9_a10_proc_1
      + 2596 pi_d_a10_a9_proc_0 + 677 pi_d_a9_a11_proc_0
      + 677 pi_d_a9_a11_proc_1 + 1920 pi_d_a11_a9_proc_0
      + 1920 pi_d_a11_a9_proc_1 + 2596 pi_d_a9_a12_proc_0 + pi_d_a12_a9_proc_0
      + 2596 pi_d_a9_a13_proc_0 + 2597 pi_d_a13_a9_proc_0 + pi_d_a13_a9_proc_1
      + 2596 pi_d_a9_a14_proc_0 + 2597 pi_d_a14_a9_proc_0 + pi_d_a14_a9_proc_1
      - 1919 pi_d_a10_a11_proc_0 - 1919 pi_d_a10_a11_proc_1
      + 4516 pi_d_a11_a10_proc_0 + 4516 pi_d_a11_a10_proc_1
      + 2596 pi_d_a10_a12_proc_0 + pi_d_a12_a10_proc_0
      + 2596 pi_d_a10_a13_proc_0 + 2597 pi_d_a13_a10_proc_0
      + pi_d_a13_a10_proc_1 + 2596 pi_d_a10_a14_proc_0
      + 2597 pi_d_a14_a10_proc_0 + pi_d_a14_a10_proc_1
      + 1920 pi_d_a11_a12_proc_0 - 1919 pi_d_a12_a11_proc_0
      + 4516 pi_d_a11_a13_proc_0 + 4516 pi_d_a11_a13_proc_1
      - 1919 pi_d_a13_a11_proc_0 - 1919 pi_d_a13_a11_proc_1
      + 4516 pi_d_a11_a14_proc_0 + 4516 pi_d_a11_a14_proc_1
      - 1919 pi_d_a14_a11_proc_0 - 1919 pi_d_a14_a11_proc_1
      + 2597 pi_d_a12_a13_proc_0 + 2596 pi_d_a12_a14_proc_0
      + pi_d_a14_a12_proc_0 + 2596 pi_d_a13_a14_proc_0
      + 2597 pi_d_a14_a13_proc_0 + pi_d_a14_a13_proc_1 + pi_y2_a0_proc_0
      + pi_y2_a1_proc_1 + pi_y2_a2_proc_0 + pi_y2_a3_proc_1 + pi_y2_a4_proc_1
      + pi_y2_a5_proc_1 + pi_y2_a6_proc_1 + pi_y2_a7_proc_0 + pi_y2_a8_proc_0
      + pi_y2_a9_proc_1 + pi_y2_a10_proc_1 + pi_y2_a11_proc_0 + pi_y2_a12_proc_0
      + pi_y2_a13_proc_1 + pi_y2_a14_proc_1
Subject To
 c1: pi_nr_a0 + pi_nr_a1 + pi_nr_a2 + pi_nr_a3 + pi_nr_a4 + pi_nr_a5 + pi_nr_a6
     + pi_nr_a7 + pi_nr_a8 + pi_nr_a9 + pi_nr_a10 + pi_nr_a11 + pi_nr_a12
     + pi_nr_a13 + pi_nr_a14 - pi_y1_a0 - pi_y1_a1 - pi_y1_a2 - pi_y1_a3
     - pi_y1_a4 - pi_y1_a5 - pi_y1_a6 - pi_y1_a7 - pi_y1_a8 - pi_y1_a9
     - pi_y1_a10 - pi_y1_a11 - pi_y1_a12 - pi_y1_a13 - pi_y1_a14 >= 1
 c2: pi_p_a0_a1 - pi_p_a2_a0 - pi_p_a8_a0 + pi_p_a0_a10 + pi_d_a0_a1_proc_0
     + pi_d_a0_a1_proc_1 - pi_d_a1_a0_proc_0 - pi_d_a1_a0_proc_1
     + pi_d_a0_a2_proc_0 - pi_d_a2_a0_proc_0 + pi_d_a0_a3_proc_1
     - pi_d_a3_a0_proc_1 + pi_d_a0_a4_proc_0 + pi_d_a0_a4_proc_1
     - pi_d_a4_a0_proc_0 - pi_d_a4_a0_proc_1 + pi_d_a0_a5_proc_0
     + pi_d_a0_a5_proc_1 - pi_d_a5_a0_proc_0 - pi_d_a5_a0_proc_1
     + pi_d_a0_a6_proc_1 - pi_d_a6_a0_proc_1 + pi_d_a0_a7_proc_0
     + pi_d_a0_a7_proc_1 - pi_d_a7_a0_proc_0 - pi_d_a7_a0_proc_1
     + pi_d_a0_a8_proc_0 + pi_d_a0_a8_proc_1 - pi_d_a8_a0_proc_0
     - pi_d_a8_a0_proc_1 + pi_d_a0_a9_proc_0 + pi_d_a0_a9_proc_1
     - pi_d_a9_a0_proc_0 - pi_d_a9_a0_proc_1 + pi_d_a0_a10_proc_0
     + pi_d_a0_a10_proc_1 - pi_d_a10_a0_proc_0 - pi_d_a10_a0_proc_1
     + pi_d_a0_a11_proc_0 + pi_d_a0_a11_proc_1 - pi_d_a11_a0_proc_0
     - pi_d_a11_a0_proc_1 + pi_d_a0_a12_proc_0 - pi_d_a12_a0_proc_0
     + pi_d_a0_a13_proc_0 + pi_d_a0_a13_proc_1 - pi_d_a13_a0_proc_0
     - pi_d_a13_a0_proc_1 + pi_d_a0_a14_proc_0 + pi_d_a0_a14_proc_1
     - pi_d_a14_a0_proc_0 - pi_d_a14_a0_proc_1 >= 0
 c3: 682 pi_p_a0_a1 + 682 pi_p_a0_a10 + 682 pi_d_a0_a1_proc_0
     + 682 pi_d_a0_a2_proc_0 + 682 pi_d_a0_a4_proc_0 + 682 pi_d_a0_a5_proc_0
     + 682 pi_d_a0_a7_proc_0 + 682 pi_d_a0_a8_proc_0 + 682 pi_d_a0_a9_proc_0
     + 682 pi_d_a0_a10_proc_0 + 682 pi_d_a0_a11_proc_0 + 682 pi_d_a0_a12_proc_0
     + 682 pi_d_a0_a13_proc_0 + 682 pi_d_a0_a14_proc_0 + pi_y1_a0
     + pi_y2_a0_proc_0 >= 0
 c4: 910 pi_p_a0_a1 + 910 pi_p_a0_a10 + 910 pi_d_a0_a1_proc_1
     + 910 pi_d_a0_a3_proc_1 + 910 pi_d_a0_a4_proc_1 + 910 pi_d_a0_a5_proc_1
     + 910 pi_d_a0_a6_proc_1 + 910 pi_d_a0_a7_proc_1 + 910 pi_d_a0_a8_proc_1
     + 910 pi_d_a0_a9_proc_1 + 910 pi_d_a0_a10_proc_1 + 910 pi_d_a0_a11_proc_1
     + 910 pi_d_a0_a13_proc_1 + 910 pi_d_a0_a14_proc_1 + pi_y1_a0
     + pi_y2_a0_proc_1 >= 0
 c5: - pi_p_a0_a1 + pi_p_a1_a7 + pi_p_a1_a13 + pi_p_a1_a3 - pi_d_a0_a1_proc_0
     - pi_d_a0_a1_proc_1 + pi_d_a1_a0_proc_0 + pi_d_a1_a0_proc_1
     + pi_d_a1_a2_proc_0 - pi_d_a2_a1_proc_0 + pi_d_a1_a3_proc_1
     - pi_d_a3_a1_proc_1 + pi_d_a1_a4_proc_0 + pi_d_a1_a4_proc_1
     - pi_d_a4_a1_proc_0 - pi_d_a4_a1_proc_1 + pi_d_a1_a5_proc_0
     + pi_d_a1_a5_proc_1 - pi_d_a5_a1_proc_0 - pi_d_a5_a1_proc_1
     + pi_d_a1_a6_proc_1 - pi_d_a6_a1_proc_1 + pi_d_a1_a7_proc_0
     + pi_d_a1_a7_proc_1 - pi_d_a7_a1_proc_0 - pi_d_a7_a1_proc_1
     + pi_d_a1_a8_proc_0 + pi_d_a1_a8_proc_1 - pi_d_a8_a1_proc_0
     - pi_d_a8_a1_proc_1 + pi_d_a1_a9_proc_0 + pi_d_a1_a9_proc_1
     - pi_d_a9_a1_proc_0 - pi_d_a9_a1_proc_1 + pi_d_a1_a10_proc_0
     + pi_d_a1_a10_proc_1 - pi_d_a10_a1_proc_0 - pi_d_a10_a1_proc_1
     + pi_d_a1_a11_proc_0 + pi_d_a1_a11_proc_1 - pi_d_a11_a1_proc_0
     - pi_d_a11_a1_proc_1 + pi_d_a1_a12_proc_0 - pi_d_a12_a1_proc_0
     + pi_d_a1_a13_proc_0 + pi_d_a1_a13_proc_1 - pi_d_a13_a1_proc_0
     - pi_d_a13_a1_proc_1 + pi_d_a1_a14_proc_0 + pi_d_a1_a14_proc_1
     - pi_d_a14_a1_proc_0 - pi_d_a14_a1_proc_1 >= 0
 c6: 820 pi_p_a1_a7 + 820 pi_p_a1_a13 + 820 pi_p_a1_a3 + 820 pi_d_a1_a0_proc_0
     + 820 pi_d_a1_a2_proc_0 + 820 pi_d_a1_a4_proc_0 + 820 pi_d_a1_a5_proc_0
     + 820 pi_d_a1_a7_proc_0 + 820 pi_d_a1_a8_proc_0 + 820 pi_d_a1_a9_proc_0
     + 820 pi_d_a1_a10_proc_0 + 820 pi_d_a1_a11_proc_0 + 820 pi_d_a1_a12_proc_0
     + 820 pi_d_a1_a13_proc_0 + 820 pi_d_a1_a14_proc_0 + pi_y1_a1
     + pi_y2_a1_proc_0 >= 0
 c7: 1020 pi_p_a1_a7 + 1020 pi_p_a1_a13 + 1020 pi_p_a1_a3
     + 1020 pi_d_a1_a0_proc_1 + 1020 pi_d_a1_a3_proc_1 + 1020 pi_d_a1_a4_proc_1
     + 1020 pi_d_a1_a5_proc_1 + 1020 pi_d_a1_a6_proc_1 + 1020 pi_d_a1_a7_proc_1
     + 1020 pi_d_a1_a8_proc_1 + 1020 pi_d_a1_a9_proc_1 + 1020 pi_d_a1_a10_proc_1
     + 1020 pi_d_a1_a11_proc_1 + 1020 pi_d_a1_a13_proc_1
     + 1020 pi_d_a1_a14_proc_1 + pi_y1_a1 + pi_y2_a1_proc_1 >= 0
 c8: pi_p_a2_a0 - pi_p_a3_a2 - pi_p_a4_a2 - pi_d_a0_a2_proc_0
     + pi_d_a2_a0_proc_0 - pi_d_a1_a2_proc_0 + pi_d_a2_a1_proc_0
     + pi_d_a2_a4_proc_0 - pi_d_a4_a2_proc_0 + pi_d_a2_a5_proc_0
     - pi_d_a5_a2_proc_0 + pi_d_a2_a7_proc_0 - pi_d_a7_a2_proc_0
     + pi_d_a2_a8_proc_0 - pi_d_a8_a2_proc_0 + pi_d_a2_a9_proc_0
     - pi_d_a9_a2_proc_0 + pi_d_a2_a10_proc_0 - pi_d_a10_a2_proc_0
     + pi_d_a2_a11_proc_0 - pi_d_a11_a2_proc_0 + pi_d_a2_a12_proc_0
     - pi_d_a12_a2_proc_0 + pi_d_a2_a13_proc_0 - pi_d_a13_a2_proc_0
     + pi_d_a2_a14_proc_0 - pi_d_a14_a2_proc_0 >= 0
 c9: 633 pi_p_a2_a0 + 633 pi_d_a2_a0_proc_0 + 633 pi_d_a2_a1_proc_0
     + 633 pi_d_a2_a4_proc_0 + 633 pi_d_a2_a5_proc_0 + 633 pi_d_a2_a7_proc_0
     + 633 pi_d_a2_a8_proc_0 + 633 pi_d_a2_a9_proc_0 + 633 pi_d_a2_a10_proc_0
     + 633 pi_d_a2_a11_proc_0 + 633 pi_d_a2_a12_proc_0 + 633 pi_d_a2_a13_proc_0
     + 633 pi_d_a2_a14_proc_0 + pi_y1_a2 + pi_y2_a2_proc_0 >= 0
 c10: pi_p_a3_a2 - pi_p_a14_a3 - pi_p_a1_a3 - pi_d_a0_a3_proc_1
      + pi_d_a3_a0_proc_1 - pi_d_a1_a3_proc_1 + pi_d_a3_a1_proc_1
      + pi_d_a3_a4_proc_1 - pi_d_a4_a3_proc_1 + pi_d_a3_a5_proc_1
      - pi_d_a5_a3_proc_1 + pi_d_a3_a6_proc_1 - pi_d_a6_a3_proc_1
      + pi_d_a3_a7_proc_1 - pi_d_a7_a3_proc_1 + pi_d_a3_a8_proc_1
      - pi_d_a8_a3_proc_1 + pi_d_a3_a9_proc_1 - pi_d_a9_a3_proc_1
      + pi_d_a3_a10_proc_1 - pi_d_a10_a3_proc_1 + pi_d_a3_a11_proc_1
      - pi_d_a11_a3_proc_1 + pi_d_a3_a13_proc_1 - pi_d_a13_a3_proc_1
      + pi_d_a3_a14_proc_1 - pi_d_a14_a3_proc_1 >= 0
 c11: 955 pi_p_a3_a2 + 955 pi_d_a3_a0_proc_1 + 955 pi_d_a3_a1_proc_1
      + 955 pi_d_a3_a4_proc_1 + 955 pi_d_a3_a5_proc_1 + 955 pi_d_a3_a6_proc_1
      + 955 pi_d_a3_a7_proc_1 + 955 pi_d_a3_a8_proc_1 + 955 pi_d_a3_a9_proc_1
      + 955 pi_d_a3_a10_proc_1 + 955 pi_d_a3_a11_proc_1 + 955 pi_d_a3_a13_proc_1
      + 955 pi_d_a3_a14_proc_1 + pi_y1_a3 + pi_y2_a3_proc_1 >= 0
 c12: pi_p_a4_a2 + pi_p_a4_a5 - pi_p_a6_a4 - pi_p_a13_a4 - pi_d_a0_a4_proc_0
      - pi_d_a0_a4_proc_1 + pi_d_a4_a0_proc_0 + pi_d_a4_a0_proc_1
      - pi_d_a1_a4_proc_0 - pi_d_a1_a4_proc_1 + pi_d_a4_a1_proc_0
      + pi_d_a4_a1_proc_1 - pi_d_a2_a4_proc_0 + pi_d_a4_a2_proc_0
      - pi_d_a3_a4_proc_1 + pi_d_a4_a3_proc_1 + pi_d_a4_a5_proc_0
      + pi_d_a4_a5_proc_1 - pi_d_a5_a4_proc_0 - pi_d_a5_a4_proc_1
      + pi_d_a4_a6_proc_1 - pi_d_a6_a4_proc_1 + pi_d_a4_a7_proc_0
      + pi_d_a4_a7_proc_1 - pi_d_a7_a4_proc_0 - pi_d_a7_a4_proc_1
      + pi_d_a4_a8_proc_0 + pi_d_a4_a8_proc_1 - pi_d_a8_a4_proc_0
      - pi_d_a8_a4_proc_1 + pi_d_a4_a9_proc_0 + pi_d_a4_a9_proc_1
      - pi_d_a9_a4_proc_0 - pi_d_a9_a4_proc_1 + pi_d_a4_a10_proc_0
      + pi_d_a4_a10_proc_1 - pi_d_a10_a4_proc_0 - pi_d_a10_a4_proc_1
      + pi_d_a4_a11_proc_0 + pi_d_a4_a11_proc_1 - pi_d_a11_a4_proc_0
      - pi_d_a11_a4_proc_1 + pi_d_a4_a12_proc_0 - pi_d_a12_a4_proc_0
      + pi_d_a4_a13_proc_0 + pi_d_a4_a13_proc_1 - pi_d_a13_a4_proc_0
      - pi_d_a13_a4_proc_1 + pi_d_a4_a14_proc_0 + pi_d_a4_a14_proc_1
      - pi_d_a14_a4_proc_0 - pi_d_a14_a4_proc_1 >= 0
 c13: 1073 pi_p_a4_a2 + 1073 pi_p_a4_a5 + 1073 pi_d_a4_a0_proc_0
      + 1073 pi_d_a4_a1_proc_0 + 1073 pi_d_a4_a2_proc_0 + 1073 pi_d_a4_a5_proc_0
      + 1073 pi_d_a4_a7_proc_0 + 1073 pi_d_a4_a8_proc_0 + 1073 pi_d_a4_a9_proc_0
      + 1073 pi_d_a4_a10_proc_0 + 1073 pi_d_a4_a11_proc_0
      + 1073 pi_d_a4_a12_proc_0 + 1073 pi_d_a4_a13_proc_0
      + 1073 pi_d_a4_a14_proc_0 + pi_y1_a4 + pi_y2_a4_proc_0 >= 0
 c14: 757 pi_p_a4_a2 + 757 pi_p_a4_a5 + 757 pi_d_a4_a0_proc_1
      + 757 pi_d_a4_a1_proc_1 + 757 pi_d_a4_a3_proc_1 + 757 pi_d_a4_a5_proc_1
      + 757 pi_d_a4_a6_proc_1 + 757 pi_d_a4_a7_proc_1 + 757 pi_d_a4_a8_proc_1
      + 757 pi_d_a4_a9_proc_1 + 757 pi_d_a4_a10_proc_1 + 757 pi_d_a4_a11_proc_1
      + 757 pi_d_a4_a13_proc_1 + 757 pi_d_a4_a14_proc_1 + pi_y1_a4
      + pi_y2_a4_proc_1 >= 0
 c15: - pi_p_a4_a5 + pi_p_a5_a12 + pi_p_a5_a13 - pi_p_a13_a5 - pi_d_a0_a5_proc_0
      - pi_d_a0_a5_proc_1 + pi_d_a5_a0_proc_0 + pi_d_a5_a0_proc_1
      - pi_d_a1_a5_proc_0 - pi_d_a1_a5_proc_1 + pi_d_a5_a1_proc_0
      + pi_d_a5_a1_proc_1 - pi_d_a2_a5_proc_0 + pi_d_a5_a2_proc_0
      - pi_d_a3_a5_proc_1 + pi_d_a5_a3_proc_1 - pi_d_a4_a5_proc_0
      - pi_d_a4_a5_proc_1 + pi_d_a5_a4_proc_0 + pi_d_a5_a4_proc_1
      + pi_d_a5_a6_proc_1 - pi_d_a6_a5_proc_1 + pi_d_a5_a7_proc_0
      + pi_d_a5_a7_proc_1 - pi_d_a7_a5_proc_0 - pi_d_a7_a5_proc_1
      + pi_d_a5_a8_proc_0 + pi_d_a5_a8_proc_1 - pi_d_a8_a5_proc_0
      - pi_d_a8_a5_proc_1 + pi_d_a5_a9_proc_0 + pi_d_a5_a9_proc_1
      - pi_d_a9_a5_proc_0 - pi_d_a9_a5_proc_1 + pi_d_a5_a10_proc_0
      + pi_d_a5_a10_proc_1 - pi_d_a10_a5_proc_0 - pi_d_a10_a5_proc_1
      + pi_d_a5_a11_proc_0 + pi_d_a5_a11_proc_1 - pi_d_a11_a5_proc_0
      - pi_d_a11_a5_proc_1 + pi_d_a5_a12_proc_0 - pi_d_a12_a5_proc_0
      + pi_d_a5_a13_proc_0 + pi_d_a5_a13_proc_1 - pi_d_a13_a5_proc_0
      - pi_d_a13_a5_proc_1 + pi_d_a5_a14_proc_0 + pi_d_a5_a14_proc_1
      - pi_d_a14_a5_proc_0 - pi_d_a14_a5_proc_1 >= 0
 c16: 1276 pi_p_a5_a12 + 1276 pi_p_a5_a13 + 1276 pi_d_a5_a0_proc_0
      + 1276 pi_d_a5_a1_proc_0 + 1276 pi_d_a5_a2_proc_0 + 1276 pi_d_a5_a4_proc_0
      + 1276 pi_d_a5_a7_proc_0 + 1276 pi_d_a5_a8_proc_0 + 1276 pi_d_a5_a9_proc_0
      + 1276 pi_d_a5_a10_proc_0 + 1276 pi_d_a5_a11_proc_0
      + 1276 pi_d_a5_a12_proc_0 + 1276 pi_d_a5_a13_proc_0
      + 1276 pi_d_a5_a14_proc_0 + pi_y1_a5 + pi_y2_a5_proc_0 >= 0
 c17: 345 pi_p_a5_a12 + 345 pi_p_a5_a13 + 345 pi_d_a5_a0_proc_1
      + 345 pi_d_a5_a1_proc_1 + 345 pi_d_a5_a3_proc_1 + 345 pi_d_a5_a4_proc_1
      + 345 pi_d_a5_a6_proc_1 + 345 pi_d_a5_a7_proc_1 + 345 pi_d_a5_a8_proc_1
      + 345 pi_d_a5_a9_proc_1 + 345 pi_d_a5_a10_proc_1 + 345 pi_d_a5_a11_proc_1
      + 345 pi_d_a5_a13_proc_1 + 345 pi_d_a5_a14_proc_1 + pi_y1_a5
      + pi_y2_a5_proc_1 >= 0
 c18: pi_p_a6_a4 + pi_p_a6_a9 - pi_p_a10_a6 - pi_d_a0_a6_proc_1
      + pi_d_a6_a0_proc_1 - pi_d_a1_a6_proc_1 + pi_d_a6_a1_proc_1
      - pi_d_a3_a6_proc_1 + pi_d_a6_a3_proc_1 - pi_d_a4_a6_proc_1
      + pi_d_a6_a4_proc_1 - pi_d_a5_a6_proc_1 + pi_d_a6_a5_proc_1
      + pi_d_a6_a7_proc_1 - pi_d_a7_a6_proc_1 + pi_d_a6_a8_proc_1
      - pi_d_a8_a6_proc_1 + pi_d_a6_a9_proc_1 - pi_d_a9_a6_proc_1
      + pi_d_a6_a10_proc_1 - pi_d_a10_a6_proc_1 + pi_d_a6_a11_proc_1
      - pi_d_a11_a6_proc_1 + pi_d_a6_a13_proc_1 - pi_d_a13_a6_proc_1
      + pi_d_a6_a14_proc_1 - pi_d_a14_a6_proc_1 >= 0
 c19: 1186 pi_p_a6_a4 + 1186 pi_p_a6_a9 + 1186 pi_d_a6_a0_proc_1
      + 1186 pi_d_a6_a1_proc_1 + 1186 pi_d_a6_a3_proc_1 + 1186 pi_d_a6_a4_proc_1
      + 1186 pi_d_a6_a5_proc_1 + 1186 pi_d_a6_a7_proc_1 + 1186 pi_d_a6_a8_proc_1
      + 1186 pi_d_a6_a9_proc_1 + 1186 pi_d_a6_a10_proc_1
      + 1186 pi_d_a6_a11_proc_1 + 1186 pi_d_a6_a13_proc_1
      + 1186 pi_d_a6_a14_proc_1 + pi_y1_a6 + pi_y2_a6_proc_1 >= 0
 c20: - pi_p_a1_a7 - pi_p_a9_a7 + pi_p_a7_a11 - pi_d_a0_a7_proc_0
      - pi_d_a0_a7_proc_1 + pi_d_a7_a0_proc_0 + pi_d_a7_a0_proc_1
      - pi_d_a1_a7_proc_0 - pi_d_a1_a7_proc_1 + pi_d_a7_a1_proc_0
      + pi_d_a7_a1_proc_1 - pi_d_a2_a7_proc_0 + pi_d_a7_a2_proc_0
      - pi_d_a3_a7_proc_1 + pi_d_a7_a3_proc_1 - pi_d_a4_a7_proc_0
      - pi_d_a4_a7_proc_1 + pi_d_a7_a4_proc_0 + pi_d_a7_a4_proc_1
      - pi_d_a5_a7_proc_0 - pi_d_a5_a7_proc_1 + pi_d_a7_a5_proc_0
      + pi_d_a7_a5_proc_1 - pi_d_a6_a7_proc_1 + pi_d_a7_a6_proc_1
      + pi_d_a7_a8_proc_0 + pi_d_a7_a8_proc_1 - pi_d_a8_a7_proc_0
      - pi_d_a8_a7_proc_1 + pi_d_a7_a9_proc_0 + pi_d_a7_a9_proc_1
      - pi_d_a9_a7_proc_0 - pi_d_a9_a7_proc_1 + pi_d_a7_a10_proc_0
      + pi_d_a7_a10_proc_1 - pi_d_a10_a7_proc_0 - pi_d_a10_a7_proc_1
      + pi_d_a7_a11_proc_0 + pi_d_a7_a11_proc_1 - pi_d_a11_a7_proc_0
      - pi_d_a11_a7_proc_1 + pi_d_a7_a12_proc_0 - pi_d_a12_a7_proc_0
      + pi_d_a7_a13_proc_0 + pi_d_a7_a13_proc_1 - pi_d_a13_a7_proc_0
      - pi_d_a13_a7_proc_1 + pi_d_a7_a14_proc_0 + pi_d_a7_a14_proc_1
      - pi_d_a14_a7_proc_0 - pi_d_a14_a7_proc_1 >= 0
 c21: 847 pi_p_a7_a11 + 847 pi_d_a7_a0_proc_0 + 847 pi_d_a7_a1_proc_0
      + 847 pi_d_a7_a2_proc_0 + 847 pi_d_a7_a4_proc_0 + 847 pi_d_a7_a5_proc_0
      + 847 pi_d_a7_a8_proc_0 + 847 pi_d_a7_a9_proc_0 + 847 pi_d_a7_a10_proc_0
      + 847 pi_d_a7_a11_proc_0 + 847 pi_d_a7_a12_proc_0 + 847 pi_d_a7_a13_proc_0
      + 847 pi_d_a7_a14_proc_0 + pi_y1_a7 + pi_y2_a7_proc_0 >= 0
 c22: 518 pi_p_a7_a11 + 518 pi_d_a7_a0_proc_1 + 518 pi_d_a7_a1_proc_1
      + 518 pi_d_a7_a3_proc_1 + 518 pi_d_a7_a4_proc_1 + 518 pi_d_a7_a5_proc_1
      + 518 pi_d_a7_a6_proc_1 + 518 pi_d_a7_a8_proc_1 + 518 pi_d_a7_a9_proc_1
      + 518 pi_d_a7_a10_proc_1 + 518 pi_d_a7_a11_proc_1 + 518 pi_d_a7_a13_proc_1
      + 518 pi_d_a7_a14_proc_1 + pi_y1_a7 + pi_y2_a7_proc_1 >= 0
 c23: pi_p_a8_a0 - pi_p_a12_a8 - pi_d_a0_a8_proc_0 - pi_d_a0_a8_proc_1
      + pi_d_a8_a0_proc_0 + pi_d_a8_a0_proc_1 - pi_d_a1_a8_proc_0
      - pi_d_a1_a8_proc_1 + pi_d_a8_a1_proc_0 + pi_d_a8_a1_proc_1
      - pi_d_a2_a8_proc_0 + pi_d_a8_a2_proc_0 - pi_d_a3_a8_proc_1
      + pi_d_a8_a3_proc_1 - pi_d_a4_a8_proc_0 - pi_d_a4_a8_proc_1
      + pi_d_a8_a4_proc_0 + pi_d_a8_a4_proc_1 - pi_d_a5_a8_proc_0
      - pi_d_a5_a8_proc_1 + pi_d_a8_a5_proc_0 + pi_d_a8_a5_proc_1
      - pi_d_a6_a8_proc_1 + pi_d_a8_a6_proc_1 - pi_d_a7_a8_proc_0
      - pi_d_a7_a8_proc_1 + pi_d_a8_a7_proc_0 + pi_d_a8_a7_proc_1
      + pi_d_a8_a9_proc_0 + pi_d_a8_a9_proc_1 - pi_d_a9_a8_proc_0
      - pi_d_a9_a8_proc_1 + pi_d_a8_a10_proc_0 + pi_d_a8_a10_proc_1
      - pi_d_a10_a8_proc_0 - pi_d_a10_a8_proc_1 + pi_d_a8_a11_proc_0
      + pi_d_a8_a11_proc_1 - pi_d_a11_a8_proc_0 - pi_d_a11_a8_proc_1
      + pi_d_a8_a12_proc_0 - pi_d_a12_a8_proc_0 + pi_d_a8_a13_proc_0
      + pi_d_a8_a13_proc_1 - pi_d_a13_a8_proc_0 - pi_d_a13_a8_proc_1
      + pi_d_a8_a14_proc_0 + pi_d_a8_a14_proc_1 - pi_d_a14_a8_proc_0
      - pi_d_a14_a8_proc_1 >= 0
 c24: 908 pi_p_a8_a0 + 908 pi_d_a8_a0_proc_0 + 908 pi_d_a8_a1_proc_0
      + 908 pi_d_a8_a2_proc_0 + 908 pi_d_a8_a4_proc_0 + 908 pi_d_a8_a5_proc_0
      + 908 pi_d_a8_a7_proc_0 + 908 pi_d_a8_a9_proc_0 + 908 pi_d_a8_a10_proc_0
      + 908 pi_d_a8_a11_proc_0 + 908 pi_d_a8_a12_proc_0 + 908 pi_d_a8_a13_proc_0
      + 908 pi_d_a8_a14_proc_0 + pi_y1_a8 + pi_y2_a8_proc_0 >= 0
 c25: 937 pi_p_a8_a0 + 937 pi_d_a8_a0_proc_1 + 937 pi_d_a8_a1_proc_1
      + 937 pi_d_a8_a3_proc_1 + 937 pi_d_a8_a4_proc_1 + 937 pi_d_a8_a5_proc_1
      + 937 pi_d_a8_a6_proc_1 + 937 pi_d_a8_a7_proc_1 + 937 pi_d_a8_a9_proc_1
      + 937 pi_d_a8_a10_proc_1 + 937 pi_d_a8_a11_proc_1 + 937 pi_d_a8_a13_proc_1
      + 937 pi_d_a8_a14_proc_1 + pi_y1_a8 + pi_y2_a8_proc_1 >= 0
 c26: pi_p_a9_a7 - pi_p_a6_a9 - pi_d_a0_a9_proc_0 - pi_d_a0_a9_proc_1
      + pi_d_a9_a0_proc_0 + pi_d_a9_a0_proc_1 - pi_d_a1_a9_proc_0
      - pi_d_a1_a9_proc_1 + pi_d_a9_a1_proc_0 + pi_d_a9_a1_proc_1
      - pi_d_a2_a9_proc_0 + pi_d_a9_a2_proc_0 - pi_d_a3_a9_proc_1
      + pi_d_a9_a3_proc_1 - pi_d_a4_a9_proc_0 - pi_d_a4_a9_proc_1
      + pi_d_a9_a4_proc_0 + pi_d_a9_a4_proc_1 - pi_d_a5_a9_proc_0
      - pi_d_a5_a9_proc_1 + pi_d_a9_a5_proc_0 + pi_d_a9_a5_proc_1
      - pi_d_a6_a9_proc_1 + pi_d_a9_a6_proc_1 - pi_d_a7_a9_proc_0
      - pi_d_a7_a9_proc_1 + pi_d_a9_a7_proc_0 + pi_d_a9_a7_proc_1
      - pi_d_a8_a9_proc_0 - pi_d_a8_a9_proc_1 + pi_d_a9_a8_proc_0
      + pi_d_a9_a8_proc_1 + pi_d_a9_a10_proc_0 + pi_d_a9_a10_proc_1
      - pi_d_a10_a9_proc_0 - pi_d_a10_a9_proc_1 + pi_d_a9_a11_proc_0
      + pi_d_a9_a11_proc_1 - pi_d_a11_a9_proc_0 - pi_d_a11_a9_proc_1
      + pi_d_a9_a12_proc_0 - pi_d_a12_a9_proc_0 + pi_d_a9_a13_proc_0
      + pi_d_a9_a13_proc_1 - pi_d_a13_a9_proc_0 - pi_d_a13_a9_proc_1
      + pi_d_a9_a14_proc_0 + pi_d_a9_a14_proc_1 - pi_d_a14_a9_proc_0
      - pi_d_a14_a9_proc_1 >= 0
 c27: 835 pi_p_a9_a7 + 835 pi_d_a9_a0_proc_0 + 835 pi_d_a9_a1_proc_0
      + 835 pi_d_a9_a2_proc_0 + 835 pi_d_a9_a4_proc_0 + 835 pi_d_a9_a5_proc_0
      + 835 pi_d_a9_a7_proc_0 + 835 pi_d_a9_a8_proc_0 + 835 pi_d_a9_a10_proc_0
      + 835 pi_d_a9_a11_proc_0 + 835 pi_d_a9_a12_proc_0 + 835 pi_d_a9_a13_proc_0
      + 835 pi_d_a9_a14_proc_0 + pi_y1_a9 + pi_y2_a9_proc_0 >= 0
 c28: 1008 pi_p_a9_a7 + 1008 pi_d_a9_a0_proc_1 + 1008 pi_d_a9_a1_proc_1
      + 1008 pi_d_a9_a3_proc_1 + 1008 pi_d_a9_a4_proc_1 + 1008 pi_d_a9_a5_proc_1
      + 1008 pi_d_a9_a6_proc_1 + 1008 pi_d_a9_a7_proc_1 + 1008 pi_d_a9_a8_proc_1
      + 1008 pi_d_a9_a10_proc_1 + 1008 pi_d_a9_a11_proc_1
      + 1008 pi_d_a9_a13_proc_1 + 1008 pi_d_a9_a14_proc_1 + pi_y1_a9
      + pi_y2_a9_proc_1 >= 0
 c29: - pi_p_a0_a10 + pi_p_a10_a6 - pi_d_a0_a10_proc_0 - pi_d_a0_a10_proc_1
      + pi_d_a10_a0_proc_0 + pi_d_a10_a0_proc_1 - pi_d_a1_a10_proc_0
      - pi_d_a1_a10_proc_1 + pi_d_a10_a1_proc_0 + pi_d_a10_a1_proc_1
      - pi_d_a2_a10_proc_0 + pi_d_a10_a2_proc_0 - pi_d_a3_a10_proc_1
      + pi_d_a10_a3_proc_1 - pi_d_a4_a10_proc_0 - pi_d_a4_a10_proc_1
      + pi_d_a10_a4_proc_0 + pi_d_a10_a4_proc_1 - pi_d_a5_a10_proc_0
      - pi_d_a5_a10_proc_1 + pi_d_a10_a5_proc_0 + pi_d_a10_a5_proc_1
      - pi_d_a6_a10_proc_1 + pi_d_a10_a6_proc_1 - pi_d_a7_a10_proc_0
      - pi_d_a7_a10_proc_1 + pi_d_a10_a7_proc_0 + pi_d_a10_a7_proc_1
      - pi_d_a8_a10_proc_0 - pi_d_a8_a10_proc_1 + pi_d_a10_a8_proc_0
      + pi_d_a10_a8_proc_1 - pi_d_a9_a10_proc_0 - pi_d_a9_a10_proc_1
      + pi_d_a10_a9_proc_0 + pi_d_a10_a9_proc_1 + pi_d_a10_a11_proc_0
      + pi_d_a10_a11_proc_1 - pi_d_a11_a10_proc_0 - pi_d_a11_a10_proc_1
      + pi_d_a10_a12_proc_0 - pi_d_a12_a10_proc_0 + pi_d_a10_a13_proc_0
      + pi_d_a10_a13_proc_1 - pi_d_a13_a10_proc_0 - pi_d_a13_a10_proc_1
      + pi_d_a10_a14_proc_0 + pi_d_a10_a14_proc_1 - pi_d_a14_a10_proc_0
      - pi_d_a14_a10_proc_1 >= 0
 c30: 1167 pi_p_a10_a6 + 1167 pi_d_a10_a0_proc_0 + 1167 pi_d_a10_a1_proc_0
      + 1167 pi_d_a10_a2_proc_0 + 1167 pi_d_a10_a4_proc_0
      + 1167 pi_d_a10_a5_proc_0 + 1167 pi_d_a10_a7_proc_0
      + 1167 pi_d_a10_a8_proc_0 + 1167 pi_d_a10_a9_proc_0
      + 1167 pi_d_a10_a11_proc_0 + 1167 pi_d_a10_a12_proc_0
      + 1167 pi_d_a10_a13_proc_0 + 1167 pi_d_a10_a14_proc_0 + pi_y1_a10
      + pi_y2_a10_proc_0 >= 0
 c31: 929 pi_p_a10_a6 + 929 pi_d_a10_a0_proc_1 + 929 pi_d_a10_a1_proc_1
      + 929 pi_d_a10_a3_proc_1 + 929 pi_d_a10_a4_proc_1 + 929 pi_d_a10_a5_proc_1
      + 929 pi_d_a10_a6_proc_1 + 929 pi_d_a10_a7_proc_1 + 929 pi_d_a10_a8_proc_1
      + 929 pi_d_a10_a9_proc_1 + 929 pi_d_a10_a11_proc_1
      + 929 pi_d_a10_a13_proc_1 + 929 pi_d_a10_a14_proc_1 + pi_y1_a10
      + pi_y2_a10_proc_1 >= 0
 c32: - pi_p_a7_a11 - pi_d_a0_a11_proc_0 - pi_d_a0_a11_proc_1
      + pi_d_a11_a0_proc_0 + pi_d_a11_a0_proc_1 - pi_d_a1_a11_proc_0
      - pi_d_a1_a11_proc_1 + pi_d_a11_a1_proc_0 + pi_d_a11_a1_proc_1
      - pi_d_a2_a11_proc_0 + pi_d_a11_a2_proc_0 - pi_d_a3_a11_proc_1
      + pi_d_a11_a3_proc_1 - pi_d_a4_a11_proc_0 - pi_d_a4_a11_proc_1
      + pi_d_a11_a4_proc_0 + pi_d_a11_a4_proc_1 - pi_d_a5_a11_proc_0
      - pi_d_a5_a11_proc_1 + pi_d_a11_a5_proc_0 + pi_d_a11_a5_proc_1
      - pi_d_a6_a11_proc_1 + pi_d_a11_a6_proc_1 - pi_d_a7_a11_proc_0
      - pi_d_a7_a11_proc_1 + pi_d_a11_a7_proc_0 + pi_d_a11_a7_proc_1
      - pi_d_a8_a11_proc_0 - pi_d_a8_a11_proc_1 + pi_d_a11_a8_proc_0
      + pi_d_a11_a8_proc_1 - pi_d_a9_a11_proc_0 - pi_d_a9_a11_proc_1
      + pi_d_a11_a9_proc_0 + pi_d_a11_a9_proc_1 - pi_d_a10_a11_proc_0
      - pi_d_a10_a11_proc_1 + pi_d_a11_a10_proc_0 + pi_d_a11_a10_proc_1
      + pi_d_a11_a12_proc_0 - pi_d_a12_a11_proc_0 + pi_d_a11_a13_proc_0
      + pi_d_a11_a13_proc_1 - pi_d_a13_a11_proc_0 - pi_d_a13_a11_proc_1
      + pi_d_a11_a14_proc_0 + pi_d_a11_a14_proc_1 - pi_d_a14_a11_proc_0
      - pi_d_a14_a11_proc_1 >= 0
 c33: 1298 pi_d_a11_a0_proc_0 + 1298 pi_d_a11_a1_proc_0
      + 1298 pi_d_a11_a2_proc_0 + 1298 pi_d_a11_a4_proc_0
      + 1298 pi_d_a11_a5_proc_0 + 1298 pi_d_a11_a7_proc_0
      + 1298 pi_d_a11_a8_proc_0 + 1298 pi_d_a11_a9_proc_0
      + 1298 pi_d_a11_a10_proc_0 + 1298 pi_d_a11_a12_proc_0
      + 1298 pi_d_a11_a13_proc_0 + 1298 pi_d_a11_a14_proc_0 + pi_y1_a11
      + pi_y2_a11_proc_0 >= 0
 c34: 1247 pi_d_a11_a0_proc_1 + 1247 pi_d_a11_a1_proc_1
      + 1247 pi_d_a11_a3_proc_1 + 1247 pi_d_a11_a4_proc_1
      + 1247 pi_d_a11_a5_proc_1 + 1247 pi_d_a11_a6_proc_1
      + 1247 pi_d_a11_a7_proc_1 + 1247 pi_d_a11_a8_proc_1
      + 1247 pi_d_a11_a9_proc_1 + 1247 pi_d_a11_a10_proc_1
      + 1247 pi_d_a11_a13_proc_1 + 1247 pi_d_a11_a14_proc_1 + pi_y1_a11
      + pi_y2_a11_proc_1 >= 0
 c35: pi_p_a12_a8 + pi_p_a12_a14 - pi_p_a5_a12 - pi_d_a0_a12_proc_0
      + pi_d_a12_a0_proc_0 - pi_d_a1_a12_proc_0 + pi_d_a12_a1_proc_0
      - pi_d_a2_a12_proc_0 + pi_d_a12_a2_proc_0 - pi_d_a4_a12_proc_0
      + pi_d_a12_a4_proc_0 - pi_d_a5_a12_proc_0 + pi_d_a12_a5_proc_0
      - pi_d_a7_a12_proc_0 + pi_d_a12_a7_proc_0 - pi_d_a8_a12_proc_0
      + pi_d_a12_a8_proc_0 - pi_d_a9_a12_proc_0 + pi_d_a12_a9_proc_0
      - pi_d_a10_a12_proc_0 + pi_d_a12_a10_proc_0 - pi_d_a11_a12_proc_0
      + pi_d_a12_a11_proc_0 + pi_d_a12_a13_proc_0 - pi_d_a13_a12_proc_0
      + pi_d_a12_a14_proc_0 - pi_d_a14_a12_proc_0 >= 0
 c36: 874 pi_p_a12_a8 + 874 pi_p_a12_a14 + 874 pi_d_a12_a0_proc_0
      + 874 pi_d_a12_a1_proc_0 + 874 pi_d_a12_a2_proc_0 + 874 pi_d_a12_a4_proc_0
      + 874 pi_d_a12_a5_proc_0 + 874 pi_d_a12_a7_proc_0 + 874 pi_d_a12_a8_proc_0
      + 874 pi_d_a12_a9_proc_0 + 874 pi_d_a12_a10_proc_0
      + 874 pi_d_a12_a11_proc_0 + 874 pi_d_a12_a13_proc_0
      + 874 pi_d_a12_a14_proc_0 + pi_y1_a12 + pi_y2_a12_proc_0 >= 0
 c37: - pi_p_a1_a13 + pi_p_a13_a4 - pi_p_a5_a13 + pi_p_a13_a5
      - pi_d_a0_a13_proc_0 - pi_d_a0_a13_proc_1 + pi_d_a13_a0_proc_0
      + pi_d_a13_a0_proc_1 - pi_d_a1_a13_proc_0 - pi_d_a1_a13_proc_1
      + pi_d_a13_a1_proc_0 + pi_d_a13_a1_proc_1 - pi_d_a2_a13_proc_0
      + pi_d_a13_a2_proc_0 - pi_d_a3_a13_proc_1 + pi_d_a13_a3_proc_1
      - pi_d_a4_a13_proc_0 - pi_d_a4_a13_proc_1 + pi_d_a13_a4_proc_0
      + pi_d_a13_a4_proc_1 - pi_d_a5_a13_proc_0 - pi_d_a5_a13_proc_1
      + pi_d_a13_a5_proc_0 + pi_d_a13_a5_proc_1 - pi_d_a6_a13_proc_1
      + pi_d_a13_a6_proc_1 - pi_d_a7_a13_proc_0 - pi_d_a7_a13_proc_1
      + pi_d_a13_a7_proc_0 + pi_d_a13_a7_proc_1 - pi_d_a8_a13_proc_0
      - pi_d_a8_a13_proc_1 + pi_d_a13_a8_proc_0 + pi_d_a13_a8_proc_1
      - pi_d_a9_a13_proc_0 - pi_d_a9_a13_proc_1 + pi_d_a13_a9_proc_0
      + pi_d_a13_a9_proc_1 - pi_d_a10_a13_proc_0 - pi_d_a10_a13_proc_1
      + pi_d_a13_a10_proc_0 + pi_d_a13_a10_proc_1 - pi_d_a11_a13_proc_0
      - pi_d_a11_a13_proc_1 + pi_d_a13_a11_proc_0 + pi_d_a13_a11_proc_1
      - pi_d_a12_a13_proc_0 + pi_d_a13_a12_proc_0 + pi_d_a13_a14_proc_0
      + pi_d_a13_a14_proc_1 - pi_d_a14_a13_proc_0 - pi_d_a14_a13_proc_1 >= 0
 c38: 1203 pi_p_a13_a4 + 1203 pi_p_a13_a5 + 1203 pi_d_a13_a0_proc_0
      + 1203 pi_d_a13_a1_proc_0 + 1203 pi_d_a13_a2_proc_0
      + 1203 pi_d_a13_a4_proc_0 + 1203 pi_d_a13_a5_proc_0
      + 1203 pi_d_a13_a7_proc_0 + 1203 pi_d_a13_a8_proc_0
      + 1203 pi_d_a13_a9_proc_0 + 1203 pi_d_a13_a10_proc_0
      + 1203 pi_d_a13_a11_proc_0 + 1203 pi_d_a13_a12_proc_0
      + 1203 pi_d_a13_a14_proc_0 + pi_y1_a13 + pi_y2_a13_proc_0 >= 0
 c39: 999 pi_p_a13_a4 + 999 pi_p_a13_a5 + 999 pi_d_a13_a0_proc_1
      + 999 pi_d_a13_a1_proc_1 + 999 pi_d_a13_a3_proc_1 + 999 pi_d_a13_a4_proc_1
      + 999 pi_d_a13_a5_proc_1 + 999 pi_d_a13_a6_proc_1 + 999 pi_d_a13_a7_proc_1
      + 999 pi_d_a13_a8_proc_1 + 999 pi_d_a13_a9_proc_1
      + 999 pi_d_a13_a10_proc_1 + 999 pi_d_a13_a11_proc_1
      + 999 pi_d_a13_a14_proc_1 + pi_y1_a13 + pi_y2_a13_proc_1 >= 0
 c40: - pi_p_a12_a14 + pi_p_a14_a3 - pi_d_a0_a14_proc_0 - pi_d_a0_a14_proc_1
      + pi_d_a14_a0_proc_0 + pi_d_a14_a0_proc_1 - pi_d_a1_a14_proc_0
      - pi_d_a1_a14_proc_1 + pi_d_a14_a1_proc_0 + pi_d_a14_a1_proc_1
      - pi_d_a2_a14_proc_0 + pi_d_a14_a2_proc_0 - pi_d_a3_a14_proc_1
      + pi_d_a14_a3_proc_1 - pi_d_a4_a14_proc_0 - pi_d_a4_a14_proc_1
      + pi_d_a14_a4_proc_0 + pi_d_a14_a4_proc_1 - pi_d_a5_a14_proc_0
      - pi_d_a5_a14_proc_1 + pi_d_a14_a5_proc_0 + pi_d_a14_a5_proc_1
      - pi_d_a6_a14_proc_1 + pi_d_a14_a6_proc_1 - pi_d_a7_a14_proc_0
      - pi_d_a7_a14_proc_1 + pi_d_a14_a7_proc_0 + pi_d_a14_a7_proc_1
      - pi_d_a8_a14_proc_0 - pi_d_a8_a14_proc_1 + pi_d_a14_a8_proc_0
      + pi_d_a14_a8_proc_1 - pi_d_a9_a14_proc_0 - pi_d_a9_a14_proc_1
      + pi_d_a14_a9_proc_0 + pi_d_a14_a9_proc_1 - pi_d_a10_a14_proc_0
      - pi_d_a10_a14_proc_1 + pi_d_a14_a10_proc_0 + pi_d_a14_a10_proc_1
      - pi_d_a11_a14_proc_0 - pi_d_a11_a14_proc_1 + pi_d_a14_a11_proc_0
      + pi_d_a14_a11_proc_1 - pi_d_a12_a14_proc_0 + pi_d_a14_a12_proc_0
      - pi_d_a13_a14_proc_0 - pi_d_a13_a14_proc_1 + pi_d_a14_a13_proc_0
      + pi_d_a14_a13_proc_1 >= 0
 c41: 1002 pi_p_a14_a3 + 1002 pi_p_a14_a14 + 1002 pi_d_a14_a0_proc_0
      + 1002 pi_d_a14_a1_proc_0 + 1002 pi_d_a14_a2_proc_0
      + 1002 pi_d_a14_a4_proc_0 + 1002 pi_d_a14_a5_proc_0
      + 1002 pi_d_a14_a7_proc_0 + 1002 pi_d_a14_a8_proc_0
      + 1002 pi_d_a14_a9_proc_0 + 1002 pi_d_a14_a10_proc_0
      + 1002 pi_d_a14_a11_proc_0 + 1002 pi_d_a14_a12_proc_0
      + 1002 pi_d_a14_a13_proc_0 + pi_y1_a14 + pi_y2_a14_proc_0 >= 0
 c42: 690 pi_p_a14_a3 + 690 pi_p_a14_a14 + 690 pi_d_a14_a0_proc_1
      + 690 pi_d_a14_a1_proc_1 + 690 pi_d_a14_a3_proc_1 + 690 pi_d_a14_a4_proc_1
      + 690 pi_d_a14_a5_proc_1 + 690 pi_d_a14_a6_proc_1 + 690 pi_d_a14_a7_proc_1
      + 690 pi_d_a14_a8_proc_1 + 690 pi_d_a14_a9_proc_1
      + 690 pi_d_a14_a10_proc_1 + 690 pi_d_a14_a11_proc_1
      + 690 pi_d_a14_a13_proc_1 + pi_y1_a14 + pi_y2_a14_proc_1 >= 0

Bounds
       pi_y1_a0 Free
       pi_y1_a1 Free
       pi_y1_a2 Free
       pi_y1_a3 Free
       pi_y1_a4 Free
       pi_y1_a5 Free
       pi_y1_a6 Free
       pi_y1_a7 Free
       pi_y1_a8 Free
       pi_y1_a9 Free
       pi_y1_a10 Free
       pi_y1_a11 Free
       pi_y1_a12 Free
       pi_y1_a13 Free
       pi_y1_a14 Free
End
